NAME: instance_2570
TYPE: TSP
DIMENSION: 20
EDGE_WEIGHT_TYPE: EUC_2D
NODE_COORD_SECTION
0 24.55 30.24
1 57.86 29.61
2 95.75 71.95
3 0.38 31.41
4 26.57 71.22
5 38.13 80.22
6 25.51 86.40
7 56.19 67.24
8 36.15 64.69
9 80.74 3.49
10 3.37 45.09
11 74.70 14.67
12 56.29 99.06
13 1.62 37.30
14 68.01 53.36
15 59.41 71.68
16 98.49 40.29
17 71.63 99.32
18 75.74 85.30
19 63.86 57.51
EOF
